Minimize
 obj: - 18 x_0_0 - 17 x_1_0 - 19 x_2_0 - 18 x_3_0 - 19 x_4_0 

Subject To 
 knapsack_0: + 2 x_0_0 + 4 x_1_0 + 5 x_2_0 + 2 x_3_0 + 3 x_4_0  <= 8.0

Bounds

Binary
 x_0_0 x_1_0 x_2_0 x_3_0 x_4_0
General

End